
Gurobi 7.5.1 (linux64, Python) logging started Fri Feb  9 16:18:44 2018

Academic license - for non-commercial use only

Gurobi 7.5.1 (linux64, Python) logging started Sat Feb 24 17:07:35 2018

Academic license - for non-commercial use only

Gurobi 7.5.1 (linux64, Python) logging started Sat Feb 24 18:30:09 2018

Academic license - for non-commercial use only

Gurobi 7.5.1 (linux64, Python) logging started Sat Feb 24 21:01:43 2018

Academic license - for non-commercial use only

Gurobi 7.5.1 (linux64, Python) logging started Fri Mar  2 13:39:42 2018

Academic license - for non-commercial use only

Gurobi 7.5.1 (linux64, Python) logging started Fri Mar  2 16:14:42 2018

Academic license - for non-commercial use only

Gurobi 7.5.1 (linux64, Python) logging started Fri Mar  2 16:16:26 2018

Academic license - for non-commercial use only

Gurobi 7.5.1 (linux64, Python) logging started Fri Mar  2 17:21:25 2018

Academic license - for non-commercial use only

Gurobi 7.5.1 (linux64, Python) logging started Sun Mar 11 13:09:07 2018

Academic license - for non-commercial use only

Gurobi 7.5.1 (linux64, Python) logging started Tue Mar 13 13:49:36 2018

Academic license - for non-commercial use only

Gurobi 7.5.1 (linux64, Python) logging started Tue Mar 13 13:54:33 2018

Academic license - for non-commercial use only

Gurobi 7.5.1 (linux64, Python) logging started Tue Mar 13 14:24:01 2018

Academic license - for non-commercial use only

Gurobi 7.5.1 (linux64, Python) logging started Tue Mar 13 14:30:14 2018

Academic license - for non-commercial use only

Gurobi 7.5.1 (linux64, Python) logging started Tue Mar 13 14:32:45 2018

Academic license - for non-commercial use only

Gurobi 7.5.1 (linux64, Python) logging started Tue Mar 13 14:37:21 2018

Academic license - for non-commercial use only

Gurobi 7.5.1 (linux64, Python) logging started Tue Mar 13 14:46:39 2018

Academic license - for non-commercial use only

Gurobi 7.5.1 (linux64, Python) logging started Sun Mar 18 14:17:52 2018

Academic license - for non-commercial use only

Gurobi 7.5.1 (linux64, Python) logging started Sun Mar 18 14:24:05 2018

Academic license - for non-commercial use only

Gurobi 7.5.1 (linux64, Python) logging started Sun Mar 18 14:25:42 2018

Academic license - for non-commercial use only

Gurobi 7.5.1 (linux64, Python) logging started Sun Mar 18 14:54:55 2018

Academic license - for non-commercial use only

Gurobi 7.5.1 (linux64, Python) logging started Tue Mar 20 13:22:01 2018

Academic license - for non-commercial use only

Gurobi 7.5.1 (linux64, Python) logging started Tue Mar 20 13:46:39 2018

Academic license - for non-commercial use only

Gurobi 7.5.1 (linux64, Python) logging started Tue Mar 20 13:47:14 2018

Academic license - for non-commercial use only

Gurobi 7.5.1 (linux64, Python) logging started Fri Mar 23 20:29:57 2018

Academic license - for non-commercial use only

Gurobi 7.5.1 (linux64, Python) logging started Fri Mar 23 22:34:28 2018

Academic license - for non-commercial use only

Gurobi 7.5.1 (linux64, Python) logging started Sun Apr  1 21:34:15 2018

Academic license - for non-commercial use only

Gurobi 7.5.1 (linux64, Python) logging started Sun Apr  1 21:54:04 2018

Academic license - for non-commercial use only

Gurobi 7.5.1 (linux64, Python) logging started Sun Apr  1 22:11:05 2018

Academic license - for non-commercial use only

Gurobi 7.5.1 (linux64, Python) logging started Sun Apr  1 22:28:05 2018

Academic license - for non-commercial use only

Gurobi 7.5.1 (linux64, Python) logging started Sun Apr  1 22:36:45 2018

Academic license - for non-commercial use only

Gurobi 7.5.1 (linux64, Python) logging started Sun Apr  1 22:40:01 2018

Academic license - for non-commercial use only

Gurobi 7.5.1 (linux64, Python) logging started Sun Apr  1 22:55:22 2018

Academic license - for non-commercial use only

Gurobi 7.5.1 (linux64, Python) logging started Mon Apr  2 13:30:05 2018

Academic license - for non-commercial use only

Gurobi 7.5.1 (linux64, Python) logging started Mon Apr  2 13:32:07 2018

Academic license - for non-commercial use only

Gurobi 7.5.1 (linux64, Python) logging started Mon Apr  2 22:40:23 2018

Academic license - for non-commercial use only

Gurobi 7.5.1 (linux64, Python) logging started Mon Apr  2 22:45:31 2018

Academic license - for non-commercial use only

Gurobi 7.5.1 (linux64, Python) logging started Mon Apr  2 23:52:56 2018

Academic license - for non-commercial use only

Gurobi 7.5.1 (linux64, Python) logging started Tue Apr  3 00:33:15 2018

Academic license - for non-commercial use only

Gurobi 7.5.1 (linux64, Python) logging started Tue Apr  3 19:10:43 2018

Academic license - for non-commercial use only

Gurobi 7.5.1 (linux64, Python) logging started Tue Apr  3 19:15:08 2018

Academic license - for non-commercial use only

Gurobi 7.5.1 (linux64, Python) logging started Tue Apr  3 22:52:32 2018

Academic license - for non-commercial use only

Gurobi 7.5.1 (linux64, Python) logging started Thu Apr  5 11:45:40 2018

Academic license - for non-commercial use only

Gurobi 7.5.1 (linux64, Python) logging started Thu Apr  5 11:48:01 2018

Academic license - for non-commercial use only

Gurobi 7.5.1 (linux64, Python) logging started Thu Apr  5 11:48:51 2018

Academic license - for non-commercial use only

Gurobi 7.5.1 (linux64, Python) logging started Thu Apr  5 11:51:19 2018

Academic license - for non-commercial use only

Gurobi 7.5.1 (linux64, Python) logging started Thu Apr  5 11:53:38 2018

Academic license - for non-commercial use only

Gurobi 7.5.1 (linux64, Python) logging started Thu Apr  5 13:12:37 2018

Academic license - for non-commercial use only

Gurobi 7.5.1 (linux64, Python) logging started Thu Apr  5 13:35:45 2018

Academic license - for non-commercial use only

Gurobi 7.5.1 (linux64, Python) logging started Thu Apr  5 14:04:45 2018

Academic license - for non-commercial use only

Gurobi 7.5.1 (linux64, Python) logging started Fri Apr  6 22:35:06 2018

Academic license - for non-commercial use only

Gurobi 7.5.1 (linux64, Python) logging started Fri Apr  6 22:36:31 2018

Academic license - for non-commercial use only

Gurobi 7.5.1 (linux64, Python) logging started Fri Apr  6 23:09:03 2018

Academic license - for non-commercial use only

Gurobi 7.5.1 (linux64, Python) logging started Sat Apr  7 18:53:36 2018

Academic license - for non-commercial use only

Gurobi 7.5.1 (linux64, Python) logging started Sat Apr  7 19:05:22 2018

Academic license - for non-commercial use only

Gurobi 7.5.1 (linux64, Python) logging started Sat Apr  7 19:16:41 2018

Academic license - for non-commercial use only

Gurobi 7.5.1 (linux64, Python) logging started Sat Apr  7 19:38:03 2018

Academic license - for non-commercial use only

Gurobi 7.5.1 (linux64, Python) logging started Wed Apr 11 10:13:53 2018

Academic license - for non-commercial use only
